%SETS
JOBS     = 1..2;
MACHINES = 1..16;
SPEED    = 1;

time               = array3d(JOBS,MACHINES,1..SPEED,[11, 84, 80, 88, 98, 81, 51, 80, 20, 67, 22, 95, 56, 47, 33, 79, 51, 61, 11, 65, 65, 65, 94, 71, 42, 49, 72, 15, 70, 70, 28, 21]);
energy             = array3d(JOBS,MACHINES,1..SPEED,[89, 43, 44, 41, 37, 44, 60, 44, 81, 51, 80, 38, 57, 62, 71, 45, 60, 54, 89, 52, 52, 52, 39, 49, 65, 61, 48, 86, 49, 49, 75, 81]);
precedence         = array2d(JOBS,MACHINES,[3,0,1,14,9,13,7,5,6,11,10,8,12,2,15,4,7,6,0,12,13,9,4,10,15,8,11,2,3,1,14,5]);